************************************************************************
file with basedata            : mm3_.bas
initial value random generator: 632771121
************************************************************************
projects                      :  1
jobs (incl. supersource/sink ):  12
horizon                       :  83
RESOURCES
  - renewable                 :  2   R
  - nonrenewable              :  2   N
  - doubly constrained        :  0   D
************************************************************************
PROJECT INFORMATION:
pronr.  #jobs rel.date duedate tardcost  MPM-Time
    1     10      0       10        7       10
************************************************************************
PRECEDENCE RELATIONS:
jobnr.    #modes  #successors   successors
   0        1          3           1   2   3
   1        3          1          10
   2        3          2           4   5
   3        3          1           7
   4        3          2           8   9
   5        3          3           6   7  10
   6        3          2           8   9
   7        3          1           8
   8        3          1          11
   9        3          1          11
  10        3          1          11
  11        1          0        
************************************************************************
REQUESTS/DURATIONS:
jobnr. mode duration  R 1  R 2  R 3  R 4  E(W 1)
------------------------------------------------------------------------
  0      1     0       0    0    0    0     0
  1      1     3       0    6    0    7    39
  2      1     1       0    4    4    0     8
  3      1     2       0    6    0    9    30
  4      1     1       5    0    0    6    11
  5      1     3       0    5    0    4    27
  6      1     4       0    9    0    3    48
  7      1     1       0    6    8    0    14
  8      1     2      10    0    0    8    36
  9      1     1       0    6    7    0    13
 10      1     3       0    4    8    0    36
 11      1     0       0    0    0    0     0
************************************************************************
RESOURCEAVAILABILITIES:
  R 1
   91
************************************************************************
RESOURCE LIMITS:
jobnr.  l(R 1)  u(R 1)
------------------------------------------------------------------------
  0        0       0
  1        7      13
  2        4       8
  3        8      15
  4        6      11
  5        5       9
  6        7      12
  7        7      14
  8        9      18
  9        7      13
 10        6      12
 11        0       0
************************************************************************
SCENARIOS:
------------------------------------------------------------------------
RESOURCE k = 1
s = 1: (0, 43, 11, 28, 6, 35, 54, 15, 50, 18, 29, 0)
s = 2: (0, 25, 9, 29, 14, 28, 41, 13, 29, 10, 30, 0)
s = 3: (0, 66, 8, 46, 8, 24, 43, 20, 37, 12, 27, 0)
s = 4: (0, 44, 6, 38, 14, 26, 40, 12, 27, 12, 38, 0)
s = 5: (0, 30, 8, 48, 7, 35, 49, 13, 26, 17, 49, 0)
s = 6: (0, 49, 6, 23, 14, 33, 54, 13, 23, 17, 38, 0)
s = 7: (0, 27, 12, 41, 12, 26, 60, 23, 26, 15, 22, 0)
s = 8: (0, 43, 6, 25, 12, 30, 40, 16, 42, 13, 44, 0)
s = 9: (0, 38, 13, 34, 10, 32, 45, 12, 32, 19, 30, 0)
s = 10: (0, 39, 5, 19, 9, 21, 37, 11, 61, 9, 37, 0)
s = 11: (0, 36, 10, 25, 7, 44, 29, 10, 47, 17, 29, 0)
s = 12: (0, 47, 6, 39, 13, 17, 59, 11, 29, 10, 44, 0)
s = 13: (0, 57, 11, 29, 12, 25, 44, 24, 42, 16, 23, 0)
s = 14: (0, 38, 6, 29, 11, 24, 92, 9, 34, 14, 55, 0)
s = 15: (0, 28, 6, 26, 8, 18, 50, 13, 53, 12, 36, 0)
s = 16: (0, 48, 9, 41, 14, 23, 47, 24, 37, 13, 24, 0)
s = 17: (0, 56, 5, 33, 8, 16, 51, 11, 33, 22, 23, 0)
s = 18: (0, 56, 11, 50, 9, 24, 74, 10, 36, 14, 25, 0)
s = 19: (0, 52, 10, 40, 12, 21, 27, 16, 38, 10, 40, 0)
s = 20: (0, 29, 15, 40, 12, 28, 71, 10, 35, 10, 31, 0)
s = 21: (0, 46, 9, 47, 13, 28, 63, 20, 34, 22, 47, 0)
s = 22: (0, 57, 6, 32, 10, 33, 26, 12, 58, 13, 31, 0)
s = 23: (0, 28, 9, 33, 13, 28, 41, 19, 29, 12, 30, 0)
s = 24: (0, 37, 8, 36, 13, 20, 46, 11, 54, 9, 48, 0)
s = 25: (0, 48, 8, 45, 8, 25, 52, 13, 42, 10, 30, 0)
s = 26: (0, 64, 12, 40, 22, 25, 52, 28, 29, 7, 28, 0)
s = 27: (0, 60, 9, 17, 11, 21, 70, 9, 40, 14, 32, 0)
s = 28: (0, 28, 11, 29, 10, 34, 64, 11, 27, 16, 27, 0)
s = 29: (0, 48, 9, 53, 8, 38, 41, 15, 36, 14, 28, 0)
s = 30: (0, 74, 15, 29, 8, 23, 45, 12, 47, 16, 49, 0)
s = 31: (0, 41, 11, 22, 12, 27, 44, 9, 34, 16, 23, 0)
s = 32: (0, 39, 8, 51, 9, 27, 31, 16, 34, 20, 41, 0)
s = 33: (0, 40, 7, 24, 8, 24, 53, 20, 20, 10, 43, 0)
s = 34: (0, 40, 10, 20, 9, 21, 57, 14, 31, 11, 22, 0)
s = 35: (0, 47, 5, 39, 10, 22, 35, 9, 22, 11, 22, 0)
s = 36: (0, 46, 11, 31, 9, 16, 43, 12, 27, 13, 36, 0)
s = 37: (0, 46, 8, 33, 13, 30, 47, 10, 30, 13, 60, 0)
s = 38: (0, 46, 8, 31, 10, 32, 62, 11, 33, 14, 32, 0)
s = 39: (0, 47, 8, 17, 10, 52, 57, 11, 22, 12, 26, 0)
s = 40: (0, 39, 5, 18, 12, 28, 40, 12, 36, 9, 38, 0)
s = 41: (0, 36, 5, 30, 18, 33, 46, 10, 59, 17, 33, 0)
s = 42: (0, 34, 6, 21, 10, 19, 40, 13, 39, 15, 28, 0)
s = 43: (0, 32, 9, 28, 11, 43, 60, 10, 30, 17, 27, 0)
s = 44: (0, 39, 9, 27, 9, 20, 69, 19, 47, 17, 38, 0)
s = 45: (0, 24, 7, 32, 14, 34, 36, 13, 39, 11, 25, 0)
s = 46: (0, 31, 10, 32, 7, 37, 52, 10, 43, 15, 32, 0)
s = 47: (0, 27, 10, 37, 11, 20, 63, 10, 35, 13, 33, 0)
s = 48: (0, 41, 12, 41, 10, 28, 43, 9, 38, 11, 42, 0)
s = 49: (0, 57, 9, 28, 19, 22, 75, 11, 29, 17, 25, 0)
s = 50: (0, 28, 8, 44, 13, 25, 74, 13, 37, 21, 41, 0)
s = 51: (0, 26, 12, 32, 12, 17, 60, 23, 42, 9, 31, 0)
s = 52: (0, 38, 6, 23, 8, 28, 56, 14, 27, 13, 29, 0)
s = 53: (0, 39, 8, 24, 7, 17, 36, 10, 34, 10, 30, 0)
s = 54: (0, 44, 6, 23, 7, 30, 66, 12, 48, 9, 29, 0)
s = 55: (0, 36, 6, 21, 10, 29, 50, 16, 27, 18, 58, 0)
s = 56: (0, 34, 6, 21, 10, 19, 46, 12, 57, 11, 67, 0)
s = 57: (0, 35, 6, 31, 13, 26, 58, 10, 37, 13, 24, 0)
s = 58: (0, 74, 6, 19, 7, 43, 30, 16, 48, 14, 28, 0)
s = 59: (0, 42, 9, 31, 13, 20, 61, 11, 30, 11, 25, 0)
s = 60: (0, 39, 8, 40, 11, 34, 54, 14, 42, 9, 29, 0)
s = 61: (0, 57, 11, 21, 14, 48, 52, 10, 45, 12, 41, 0)
s = 62: (0, 31, 9, 34, 9, 17, 52, 15, 52, 9, 23, 0)
s = 63: (0, 59, 9, 18, 9, 18, 59, 18, 37, 17, 52, 0)
s = 64: (0, 26, 8, 33, 12, 22, 35, 18, 51, 12, 33, 0)
s = 65: (0, 23, 8, 31, 13, 39, 70, 13, 53, 17, 26, 0)
s = 66: (0, 39, 8, 21, 12, 30, 40, 16, 47, 12, 62, 0)
s = 67: (0, 48, 8, 29, 9, 31, 45, 10, 36, 19, 32, 0)
s = 68: (0, 45, 11, 27, 11, 29, 53, 17, 36, 17, 35, 0)
s = 69: (0, 23, 6, 30, 11, 26, 51, 12, 28, 10, 30, 0)
s = 70: (0, 45, 8, 34, 20, 36, 73, 9, 23, 12, 42, 0)
s = 71: (0, 23, 9, 40, 15, 41, 78, 16, 49, 22, 28, 0)
s = 72: (0, 25, 11, 46, 12, 21, 47, 16, 58, 22, 32, 0)
s = 73: (0, 43, 12, 20, 8, 19, 43, 16, 46, 10, 55, 0)
s = 74: (0, 25, 11, 26, 11, 34, 46, 17, 56, 16, 32, 0)
s = 75: (0, 24, 7, 26, 7, 23, 62, 13, 29, 10, 30, 0)
s = 76: (0, 43, 9, 18, 11, 20, 49, 14, 47, 13, 32, 0)
s = 77: (0, 31, 8, 19, 16, 26, 38, 15, 40, 20, 54, 0)
s = 78: (0, 36, 13, 44, 17, 21, 65, 19, 42, 11, 26, 0)
s = 79: (0, 37, 7, 28, 11, 28, 52, 17, 45, 14, 35, 0)
s = 80: (0, 57, 5, 21, 14, 27, 43, 15, 21, 11, 33, 0)
s = 81: (0, 31, 12, 41, 13, 19, 58, 9, 28, 12, 27, 0)
s = 82: (0, 22, 9, 38, 11, 27, 36, 22, 38, 14, 24, 0)
s = 83: (0, 40, 10, 20, 8, 25, 42, 20, 44, 17, 32, 0)
s = 84: (0, 43, 10, 36, 11, 33, 34, 11, 61, 20, 32, 0)
s = 85: (0, 40, 10, 26, 7, 21, 36, 22, 23, 19, 23, 0)
s = 86: (0, 58, 6, 32, 9, 20, 46, 17, 22, 13, 22, 0)
s = 87: (0, 36, 7, 17, 13, 29, 60, 16, 30, 17, 34, 0)
s = 88: (0, 29, 8, 22, 12, 17, 46, 20, 40, 15, 50, 0)
s = 89: (0, 24, 7, 37, 11, 37, 60, 13, 24, 15, 33, 0)
s = 90: (0, 22, 6, 32, 12, 20, 44, 14, 43, 11, 37, 0)
s = 91: (0, 27, 7, 28, 8, 30, 32, 13, 35, 10, 34, 0)
s = 92: (0, 54, 12, 44, 15, 27, 38, 21, 43, 13, 33, 0)
s = 93: (0, 32, 10, 27, 7, 39, 63, 11, 20, 15, 47, 0)
s = 94: (0, 33, 9, 24, 10, 23, 37, 12, 33, 11, 29, 0)
s = 95: (0, 31, 8, 27, 9, 28, 63, 11, 34, 8, 42, 0)
s = 96: (0, 28, 7, 31, 13, 34, 43, 16, 28, 19, 38, 0)
s = 97: (0, 30, 11, 29, 9, 23, 50, 13, 33, 9, 32, 0)
s = 98: (0, 38, 10, 23, 10, 25, 64, 14, 29, 15, 25, 0)
s = 99: (0, 55, 11, 17, 13, 32, 56, 11, 45, 9, 27, 0)
s = 100: (0, 28, 5, 18, 20, 20, 78, 15, 36, 16, 20, 0)
s = 101: (0, 31, 10, 35, 15, 36, 39, 15, 63, 13, 24, 0)
s = 102: (0, 45, 10, 34, 7, 35, 36, 24, 31, 13, 36, 0)
s = 103: (0, 54, 12, 26, 10, 29, 41, 22, 55, 14, 34, 0)
s = 104: (0, 35, 8, 31, 15, 30, 58, 12, 27, 24, 32, 0)
s = 105: (0, 32, 13, 20, 9, 26, 40, 13, 41, 10, 39, 0)
s = 106: (0, 54, 7, 46, 11, 32, 32, 13, 33, 10, 48, 0)
s = 107: (0, 36, 9, 40, 13, 20, 39, 9, 24, 16, 48, 0)
s = 108: (0, 25, 10, 22, 15, 33, 61, 8, 37, 11, 38, 0)
s = 109: (0, 41, 13, 20, 11, 34, 43, 14, 61, 22, 29, 0)
s = 110: (0, 43, 7, 31, 12, 39, 55, 14, 38, 16, 27, 0)
s = 111: (0, 43, 13, 37, 13, 23, 43, 21, 32, 15, 25, 0)
s = 112: (0, 29, 6, 36, 9, 19, 42, 15, 19, 19, 44, 0)
s = 113: (0, 50, 11, 41, 10, 18, 29, 19, 43, 15, 57, 0)
s = 114: (0, 41, 8, 22, 13, 16, 50, 10, 46, 8, 32, 0)
s = 115: (0, 24, 11, 26, 6, 25, 78, 18, 21, 15, 35, 0)
s = 116: (0, 39, 10, 30, 14, 37, 55, 22, 30, 17, 29, 0)
s = 117: (0, 25, 10, 23, 10, 38, 57, 14, 48, 16, 24, 0)
s = 118: (0, 35, 10, 24, 10, 29, 45, 13, 30, 15, 32, 0)
s = 119: (0, 45, 10, 53, 13, 30, 60, 13, 23, 11, 32, 0)
s = 120: (0, 54, 6, 24, 9, 29, 69, 22, 33, 12, 38, 0)
s = 121: (0, 31, 10, 18, 15, 21, 54, 22, 38, 12, 35, 0)
s = 122: (0, 35, 9, 42, 15, 32, 42, 12, 36, 10, 44, 0)
s = 123: (0, 27, 6, 38, 14, 48, 62, 16, 30, 12, 54, 0)
s = 124: (0, 27, 8, 34, 12, 27, 54, 14, 49, 14, 46, 0)
s = 125: (0, 27, 9, 39, 10, 32, 91, 14, 28, 10, 23, 0)
s = 126: (0, 41, 8, 21, 7, 20, 43, 14, 45, 8, 25, 0)
s = 127: (0, 56, 7, 20, 17, 20, 78, 12, 40, 17, 54, 0)
s = 128: (0, 50, 9, 22, 7, 31, 46, 18, 37, 13, 49, 0)
s = 129: (0, 42, 8, 31, 12, 18, 32, 14, 43, 16, 33, 0)
s = 130: (0, 41, 6, 20, 15, 15, 50, 16, 22, 15, 29, 0)
s = 131: (0, 49, 5, 20, 8, 26, 36, 16, 27, 12, 22, 0)
s = 132: (0, 28, 8, 28, 10, 23, 36, 17, 22, 11, 33, 0)
s = 133: (0, 33, 8, 31, 10, 41, 71, 18, 25, 15, 38, 0)
s = 134: (0, 31, 5, 31, 15, 34, 45, 19, 45, 9, 35, 0)
s = 135: (0, 37, 7, 29, 11, 25, 53, 13, 33, 13, 38, 0)
s = 136: (0, 66, 7, 36, 10, 25, 51, 27, 27, 15, 37, 0)
s = 137: (0, 34, 10, 17, 10, 52, 58, 22, 38, 15, 44, 0)
s = 138: (0, 44, 7, 28, 8, 19, 73, 12, 43, 8, 37, 0)
s = 139: (0, 38, 8, 32, 9, 20, 30, 14, 37, 18, 32, 0)
s = 140: (0, 36, 5, 28, 11, 26, 44, 17, 30, 19, 29, 0)
s = 141: (0, 37, 10, 38, 7, 45, 50, 11, 27, 14, 24, 0)
s = 142: (0, 32, 6, 42, 14, 16, 47, 17, 34, 10, 38, 0)
s = 143: (0, 46, 6, 19, 10, 24, 42, 16, 36, 9, 26, 0)
s = 144: (0, 31, 9, 27, 8, 32, 34, 15, 38, 11, 61, 0)
s = 145: (0, 36, 7, 42, 15, 31, 54, 18, 29, 17, 31, 0)
s = 146: (0, 38, 6, 29, 8, 46, 48, 11, 21, 11, 22, 0)
s = 147: (0, 48, 10, 28, 8, 39, 73, 20, 45, 13, 59, 0)
s = 148: (0, 47, 7, 29, 15, 22, 40, 18, 22, 8, 25, 0)
s = 149: (0, 32, 6, 28, 9, 24, 43, 17, 22, 13, 38, 0)
s = 150: (0, 23, 9, 27, 20, 23, 36, 17, 38, 18, 44, 0)
s = 151: (0, 33, 8, 44, 6, 35, 53, 15, 38, 17, 48, 0)
s = 152: (0, 49, 7, 22, 21, 34, 36, 15, 27, 13, 32, 0)
s = 153: (0, 38, 8, 38, 10, 26, 62, 14, 35, 11, 46, 0)
s = 154: (0, 36, 7, 27, 16, 44, 26, 17, 39, 12, 26, 0)
s = 155: (0, 38, 10, 37, 12, 37, 56, 17, 31, 10, 29, 0)
s = 156: (0, 41, 6, 21, 15, 46, 41, 9, 32, 21, 45, 0)
s = 157: (0, 48, 7, 33, 11, 34, 41, 11, 32, 14, 48, 0)
s = 158: (0, 26, 11, 27, 13, 20, 34, 15, 43, 12, 32, 0)
s = 159: (0, 35, 8, 22, 12, 24, 52, 20, 25, 13, 29, 0)
s = 160: (0, 24, 8, 32, 10, 18, 66, 11, 38, 14, 34, 0)
s = 161: (0, 37, 10, 22, 8, 32, 57, 12, 49, 15, 39, 0)
s = 162: (0, 27, 6, 20, 8, 21, 46, 13, 29, 14, 28, 0)
s = 163: (0, 25, 10, 38, 13, 31, 75, 12, 38, 21, 56, 0)
s = 164: (0, 48, 6, 30, 10, 22, 30, 15, 33, 8, 35, 0)
s = 165: (0, 42, 12, 23, 14, 28, 37, 9, 48, 15, 25, 0)
s = 166: (0, 39, 12, 37, 9, 15, 37, 14, 32, 8, 46, 0)
s = 167: (0, 45, 8, 33, 12, 15, 45, 9, 26, 19, 27, 0)
s = 168: (0, 53, 7, 24, 10, 49, 36, 15, 61, 7, 27, 0)
s = 169: (0, 24, 7, 37, 11, 25, 76, 12, 32, 13, 37, 0)
s = 170: (0, 30, 14, 52, 10, 26, 41, 20, 32, 9, 21, 0)
s = 171: (0, 27, 9, 40, 11, 18, 46, 17, 58, 14, 30, 0)
s = 172: (0, 25, 7, 42, 17, 24, 58, 16, 30, 11, 37, 0)
s = 173: (0, 42, 8, 35, 18, 28, 50, 18, 55, 16, 37, 0)
s = 174: (0, 27, 16, 22, 8, 27, 82, 15, 36, 16, 33, 0)
s = 175: (0, 48, 9, 29, 12, 28, 69, 12, 28, 12, 28, 0)
s = 176: (0, 23, 9, 27, 7, 18, 45, 10, 39, 11, 42, 0)
s = 177: (0, 59, 7, 35, 13, 26, 38, 16, 39, 10, 26, 0)
s = 178: (0, 52, 7, 36, 14, 24, 47, 15, 50, 16, 47, 0)
s = 179: (0, 38, 7, 20, 9, 32, 42, 17, 35, 17, 26, 0)
s = 180: (0, 52, 6, 34, 13, 15, 56, 25, 27, 24, 54, 0)
s = 181: (0, 42, 10, 35, 12, 23, 63, 13, 46, 19, 47, 0)
s = 182: (0, 24, 6, 30, 10, 30, 39, 15, 29, 25, 21, 0)
s = 183: (0, 32, 6, 36, 11, 39, 51, 11, 34, 17, 28, 0)
s = 184: (0, 58, 7, 31, 12, 25, 33, 17, 40, 13, 24, 0)
s = 185: (0, 40, 7, 30, 13, 18, 87, 17, 33, 13, 28, 0)
s = 186: (0, 41, 9, 25, 13, 31, 26, 20, 41, 10, 34, 0)
s = 187: (0, 34, 9, 38, 9, 17, 65, 15, 30, 18, 27, 0)
s = 188: (0, 33, 7, 42, 12, 30, 87, 15, 57, 14, 47, 0)
s = 189: (0, 37, 5, 35, 12, 20, 50, 16, 37, 15, 30, 0)
s = 190: (0, 42, 6, 32, 10, 32, 69, 13, 25, 12, 28, 0)
s = 191: (0, 30, 10, 48, 16, 19, 51, 11, 31, 11, 39, 0)
s = 192: (0, 33, 6, 58, 11, 31, 61, 15, 29, 13, 25, 0)
s = 193: (0, 51, 12, 18, 12, 30, 59, 15, 53, 14, 50, 0)
s = 194: (0, 48, 8, 37, 12, 20, 67, 14, 48, 15, 31, 0)
s = 195: (0, 43, 9, 18, 15, 22, 34, 10, 47, 12, 35, 0)
s = 196: (0, 22, 10, 32, 12, 19, 43, 10, 45, 18, 37, 0)
s = 197: (0, 29, 5, 29, 12, 29, 48, 14, 48, 10, 21, 0)
s = 198: (0, 32, 6, 28, 16, 33, 54, 9, 42, 15, 32, 0)
s = 199: (0, 30, 7, 46, 10, 36, 32, 16, 39, 21, 37, 0)
s = 200: (0, 72, 6, 37, 8, 33, 30, 10, 50, 14, 34, 0)
************************************************************************
ES/LS-VALUES:
jobnr.   ES(i)    LS(i)
------------------------------------------------------------------------
  0        0        0
  1        0       71
  2        0       63
  3        0       73
  4        2       77
  5        2       65
  6        7       71
  7        7       77
  8       14       79
  9       14       81
 10        7       77
 11       17       83
************************************************************************
BIG-M-VALUES:
M1 = 14, M2 = 92
************************************************************************
